77
1 65 
3 26 23 30 
1 89 
1 53 
3 117 84 20 
2 88 94 
2 73 55 
3 52 6 107 
1 38 
3 54 13 92 
3 56 32 7 
2 106 70 
3 81 113 91 
3 66 90 24 
1 33 
1 4 
2 11 97 
1 101 
1 34 
3 39 5 87 
2 64 40 
3 68 75 116 
1 14 
1 86 
2 46 109 
1 120 
1 77 
3 36 98 8 
1 58 
3 100 71 47 
3 67 60 72 
2 49 42 
3 44 1 95 
1 18 
1 103 
1 63 
1 28 
1 43 
1 80 
1 17 
1 2 
1 93 
1 50 
1 79 
2 104 29 
1 85 
1 105 
1 51 
3 41 96 3 
1 37 
1 57 
2 108 111 
1 10 
1 16 
1 114 
1 35 
1 31 
2 61 76 
2 112 74 
1 27 
1 102 
1 15 
1 118 
1 62 
1 48 
1 45 
1 119 
1 19 
1 82 
1 12 
1 21 
1 25 
3 83 22 110 
1 59 
1 69 
3 99 9 78 
1 115 
